Route #1: 1 18 52 40 8 64 12 55 49 58 20 33
Route #2: 1 15 4 37 36 5 38 31 46
Route #3: 1 63 29 24 34 2 13 14 62
Route #4: 1 48 35 32 27 7 65 47
Route #5: 1 6 59 21 41 60 11
Route #6: 1 50 44 28 16 23 10
Route #7: 1 56 30 19 22 26 54 53
Route #8: 1 61 17 42 43 39 3 51
Route #9: 1 57 45 9 25
cost 1460
